TCS_Benchmarks/redos_fix/snort3_output_distinct_757_756_0_0.txt
[^\n\r]*
([^\n\r]*)([nN][eE][tT][iI][dD]=)([^\n\r]*)
[^\n\r]*